benchmark_str_length/p1_10_6-4.dzn
Alphabet = {A,C,G,T};
ns = 10;
nc = 6;
sl = 6;
neighbours = [| I(A),I(A),I(A),I(A),I(A),I(A) | I(A),I(A),I(A),I(A),I(A),I(A) | I(A),I(A),I(C),I(A),I(C),I(C) | I(A),I(A),I(A),I(A),I(A),I(A) | I(C),I(C),I(C),I(C),I(A),I(A) | I(A),I(A),I(A),I(A),I(A),I(A) | I(A),I(A),I(C),I(A),I(A),I(A) | I(A),I(A),I(A),I(C),I(A),I(A) | I(C),I(A),I(A),I(A),I(C),I(A) | I(A),I(C),I(C),I(A),I(A),I(A) |];
