benchmark_str_length/p1_10_6-4.txt
{
	"num_strings": 10,
	"alphabet": "ACGT",
	"strings": [
		"AAAAAA",
		"AAAAAA",
		"AACACC",
		"AAAAAA",
		"CCCCAA",
		"AAAAAA",
		"AACAAA",
		"AAACAA",
		"CAAACA",
		"ACCAAA"
	],
	"str_length":[6,6,6,6,6,6,6,6,6,6]
}